 &control
    calculation='vc-relax'
    restart_mode='from_scratch',
    pseudo_dir ='~/bin/pseudo/',
    outdir='tmp/',
    prefix='NaH-Ti_64',
    dt=20,
    nstep=5000,
    tprnfor = .true.,
    tstress = .true.,
    disk_io='minimal',
 /
 &system
    ibrav= 0, 
    celldm(1)=18.00,
    nat=64, ntyp= 3, nbnd=180 ,
    occupations='smearing',degauss=0.02, smearing='mp',
    ecutwfc = 30.0, nosym=.true., nspin=2,
    ecutrho = 300.0,
    starting_magnetization(1) = 0.9,
    starting_magnetization(2) = 0.1,
    starting_magnetization(3) = 0.1,
 /
 &electrons
    diagonalization='david'
    mixing_mode = 'plain'
    conv_thr =  1.0d-8,
    mixing_beta = 0.4
 /
 &ions
    ion_dynamics='damp',
    ion_temperature='rescaling',
    tolp=1.0d+2,tempw=300.0
 /
 &cell
    cell_dynamics='damp-pr', 
    press=0.0,
 /

ATOMIC_SPECIES
  Na 22.98976928  Na.pbe-sp-van_ak.UPF
  H  1.00794  H.pbe-van_ak.UPF
  Ti 47.876   Ti.pbe-sp-van_ak.UPF
CELL_PARAMETERS (alat= 18.00000000)
   1.014494167  -0.002315902  -0.002343692
  -0.002315902   1.014465638  -0.002323212
  -0.002343692  -0.002323212   1.014478365

ATOMIC_POSITIONS {crystal}
Ti       0.024546313   0.024464863   0.024536261
Na       0.492691016   0.006974608   0.007025023
Na       0.007045943   0.492588377   0.007004923
Na       0.509550860   0.509424413   0.008076116
Na       0.007040787   0.006946379   0.492627168
Na       0.509613956   0.007940012   0.509566950
Na       0.008177952   0.509379217   0.509450655
Na       0.506260855   0.506192009   0.506233436
Na       0.259168815   0.259095316  -0.000971188
Na       0.757403900   0.253289182   0.006286102
Na       0.253359287   0.757329375   0.006300163
Na       0.766226614   0.766141927   0.010220998
Na       0.259165595   0.259010346   0.512703864
Na       0.756458052   0.258622353   0.510395690
Na       0.258673198   0.756329302   0.510364163
Na       0.758448892   0.758297157   0.509748924
Na       0.259216689  -0.001030864   0.259196893
Na       0.757389985   0.006219118   0.253345336
Na       0.259170962   0.512638717   0.259094504
Na       0.756438431   0.510296757   0.258655027
Na       0.253373689   0.006213960   0.757374786
Na       0.766264293   0.010162770   0.766231598
Na       0.258676796   0.510285712   0.756403017
Na       0.758444476   0.509679949   0.758377256
Na      -0.000968753   0.259097223   0.259146178
Na       0.512735296   0.259033232   0.259114015
Na       0.006310706   0.757303913   0.253348398
Na       0.510384709   0.756318927   0.258616946
Na       0.006328411   0.253277403   0.757358934
Na       0.510404801   0.258585482   0.756398668
Na       0.010264477   0.766130731   0.766193719
Na       0.509781250   0.758310302   0.758416169
H        0.134404840   0.134313786   0.134422002
H        0.752905281   0.262181881   0.262253156
H        0.262279801   0.752823855   0.262242227
H        0.755526601   0.755430108   0.259962285
H        0.262289999   0.262178417   0.752853203
H        0.755553478   0.259899614   0.755516520
H        0.259988208   0.755435881   0.755503874
H        0.760970608   0.760861320   0.760932204
H       -0.011145871  -0.011217018   0.224210097
H        0.509705391   0.005731130   0.251265089
H        0.005861676   0.509587846   0.251250123
H        0.511314329   0.511210639   0.255926566
H        0.010506931   0.010413812   0.812415659
H        0.509910479   0.007765217   0.764369085
H        0.007893635   0.509779016   0.764361226
H        0.509955272   0.509855582   0.760683799
H       -0.011122514   0.224139176  -0.011158019
H        0.509693459   0.251193448   0.005789608
H        0.010501987   0.812343003   0.010484967
H        0.509882156   0.764315146   0.007848842
H        0.005831892   0.251178279   0.509671872
H        0.511407042   0.255924292   0.511361453
H        0.007889024   0.764296176   0.509842208
H        0.509934863   0.760553065   0.509899706
H        0.224204148  -0.011191006  -0.011149667
H        0.812427990   0.010420218   0.010484487
H        0.251283330   0.509603319   0.005805415
H        0.764409834   0.509789984   0.007834468
H        0.251292162   0.005718410   0.509674353
H        0.764400353   0.007770906   0.509873550
H        0.255989713   0.511207766   0.511273407
H        0.760766642   0.509832462   0.509894753
K_POINTS {automatic}
 2 2 2 0 0 0 
