 &control
   calculation = 'vc-relax'
   restart_mode = 'from_scratch'
   pseudo_dir = './pseudo/'
   outdir = './out/',
   wfcdir = '/work/funashima/Bi2Te3_166',
   disk_io = 'minimal'
   tstress = .true.
   tprnfor = .true.
 /

 &system
   ibrav = 5,
   celldm(1) =    6.70604,
   celldm(4) =    0.12601,
   nat = 5, ntyp = 2, nbnd = 78,
   occupations='smearing', degauss=0.02, smearing='mp',
   ecutwfc =  82.0068,   ecutrho = 456.1601,
   lspinorb = .true.,
   noncolin = .true.,
 /

 &electrons
   diagonalization = 'david',
   electron_maxstep = 500,
   mixing_mode = 'plain',
   mixing_beta = 0.6,
   conv_thr = 1.00000e-09,
 /

 &ions
 /

 &cell
   cell_dynamics = 'bfgs',
   press = 0.000, 
   cell_factor = 2.000,
 /

ATOMIC_SPECIES
  Bi  208.9804  Bi.rel-pbe-dn-kjpaw_psl.1.0.0.UPF
  Te  127.6000  Te.rel-pbe-dn-kjpaw_psl.1.0.0.UPF

ATOMIC_POSITIONS {crystal}
 Bi  -0.387810  -0.387810  -0.387810
 Bi   0.387810   0.387810   0.387810
 Te   0.000000   0.000000   0.000000
 Te   0.203886   0.203886   0.203886
 Te  -0.203886  -0.203886  -0.203886

K_POINTS {automatic}
 6 6 6 0 0 0
