 &control
   calculation = 'vc_relax'
   restart_mode = 'from_scratch'
   pseudo_dir = './pseudo/'
   outdir = './out/',
   wfcdir = '/work/funashima/Ca1Fe2As2_139/',
   diskio = 'minimal'
   tstress = .true.
   tprnfor = .true.
 /

 &system
   ibrav = 7,
   celldm(1) =    9.25676,
   celldm(3) =    0.89011,
   nat = 5, ntyp = 3, nbnd = 52,
   occupations='smearing', degauss=0.02, smearing='mp',
   ecutwfc =  70.7974,   ecutrho = 496.3629, 
 /

 &electrons
   diagonalization = 'david',
   electron_maxstep = 500,
   mixing_mode = 'plain',
   mixing_beta = 0.6,
   conv_thr = 1.00000e-09,
 /

 &ions
 /

 &cell
   cell_dynamics = 'bfgs',
   press = 0.000, 
   cell_factor = 2.000,
 /

ATOMIC_SPECIES
  Ca   40.0780  Ca.rel-pbe-spn-kjpaw_psl.1.0.0.UPF
  Fe   55.8450  Fe.rel-pbe-spn-kjpaw_psl.1.0.0.UPF
  As   74.9216  As.rel-pbe-n-kjpaw_psl.1.0.0.UPF

ATOMIC_POSITIONS {crystal}
 Ca   0.000000   0.000000   0.000000
 Fe   0.000000   0.500000   0.250000
 Fe   0.000000   0.500000  -0.250000
 As   0.000000   0.000000   0.226130
 As   0.000000   0.000000  -0.226130

K_POINTS {automatic}
 6 6 6 0 0 0
